NAME 
OBJSENSE MAX
ROWS
 N  OBJ
 L  packing[0]
 L  packing[1]
 L  packing[2]
 L  packing[3]
 L  packing[4]
 L  packing[5]
 L  packing[6]
 L  packing[7]
 L  packing[8]
 L  packing[9]
 L  packing[10]
 L  packing[11]
 L  packing[12]
 L  packing[13]
 L  packing[14]
 L  packing[15]
 L  packing[16]
 L  packing[17]
 L  packing[18]
 L  packing[19]
 L  packing[20]
 L  packing[21]
 L  packing[22]
 L  packing[23]
 L  packing[24]
 L  packing[25]
 L  packing[26]
 L  packing[27]
 L  packing[28]
 L  packing[29]
 L  packing[30]
 L  packing[31]
 L  packing[32]
 L  packing[33]
 L  packing[34]
 L  packing[35]
 L  packing[36]
 L  packing[37]
 L  packing[38]
 L  packing[39]
 L  packing[40]
 L  packing[41]
 L  packing[42]
 L  packing[43]
 L  packing[44]
 L  packing[45]
 L  packing[46]
 L  packing[47]
 L  packing[48]
 L  packing[49]
 L  R52     
COLUMNS
    MARKER    'MARKER'                 'INTORG'
    x[1]      OBJ       16
    x[1]      packing[0]  43
    x[1]      packing[1]  140
    x[1]      packing[2]  193
    x[1]      packing[3]  172
    x[1]      packing[4]  6
    x[1]      packing[6]  86
    x[1]      packing[7]  77
    x[1]      packing[8]  122
    x[1]      packing[10]  56
    x[1]      packing[12]  164
    x[1]      packing[13]  20
    x[1]      packing[14]  99
    x[1]      packing[15]  110
    x[1]      packing[16]  56
    x[1]      packing[17]  75
    x[1]      packing[19]  155
    x[1]      packing[20]  3
    x[1]      packing[22]  25
    x[1]      packing[24]  27
    x[1]      packing[25]  16
    x[1]      packing[26]  106
    x[1]      packing[28]  47
    x[1]      packing[29]  153
    x[1]      packing[32]  65
    x[1]      packing[33]  31
    x[1]      packing[34]  176
    x[1]      packing[35]  147
    x[1]      packing[36]  107
    x[1]      packing[37]  53
    x[1]      packing[38]  38
    x[1]      packing[39]  11
    x[1]      packing[40]  8
    x[1]      packing[41]  71
    x[1]      packing[45]  103
    x[1]      packing[46]  89
    x[1]      packing[48]  168
    x[1]      packing[49]  48
    x[2]      OBJ       156
    x[2]      packing[0]  139
    x[2]      packing[1]  69
    x[2]      packing[2]  112
    x[2]      packing[4]  69
    x[2]      packing[5]  156
    x[2]      packing[7]  182
    x[2]      packing[8]  193
    x[2]      packing[10]  155
    x[2]      packing[11]  86
    x[2]      packing[12]  27
    x[2]      packing[13]  160
    x[2]      packing[14]  154
    x[2]      packing[15]  157
    x[2]      packing[16]  191
    x[2]      packing[17]  21
    x[2]      packing[18]  163
    x[2]      packing[19]  118
    x[2]      packing[21]  53
    x[2]      packing[23]  159
    x[2]      packing[24]  100
    x[2]      packing[25]  83
    x[2]      packing[26]  179
    x[2]      packing[27]  107
    x[2]      packing[28]  126
    x[2]      packing[31]  38
    x[2]      packing[32]  142
    x[2]      packing[33]  197
    x[2]      packing[34]  99
    x[2]      packing[35]  92
    x[2]      packing[36]  61
    x[2]      packing[38]  7
    x[2]      packing[39]  162
    x[2]      packing[40]  104
    x[2]      packing[42]  71
    x[2]      packing[43]  85
    x[2]      packing[45]  60
    x[2]      packing[47]  3
    x[2]      packing[48]  62
    x[2]      packing[49]  173
    x[3]      OBJ       98
    x[3]      packing[0]  176
    x[3]      packing[1]  15
    x[3]      packing[2]  159
    x[3]      packing[3]  88
    x[3]      packing[4]  17
    x[3]      packing[5]  101
    x[3]      packing[6]  144
    x[3]      packing[8]  68
    x[3]      packing[9]  160
    x[3]      packing[11]  27
    x[3]      packing[13]  18
    x[3]      packing[14]  172
    x[3]      packing[17]  96
    x[3]      packing[18]  35
    x[3]      packing[19]  97
    x[3]      packing[20]  9
    x[3]      packing[21]  20
    x[3]      packing[22]  186
    x[3]      packing[24]  132
    x[3]      packing[25]  44
    x[3]      packing[26]  181
    x[3]      packing[27]  132
    x[3]      packing[30]  108
    x[3]      packing[31]  186
    x[3]      packing[32]  183
    x[3]      packing[33]  53
    x[3]      packing[34]  163
    x[3]      packing[37]  185
    x[3]      packing[38]  98
    x[3]      packing[40]  61
    x[3]      packing[41]  116
    x[3]      packing[42]  102
    x[3]      packing[43]  152
    x[3]      packing[45]  173
    x[3]      packing[46]  196
    x[3]      packing[47]  83
    x[3]      packing[49]  9
    x[4]      OBJ       60
    x[4]      packing[1]  64
    x[4]      packing[2]  6
    x[4]      packing[3]  75
    x[4]      packing[4]  170
    x[4]      packing[5]  102
    x[4]      packing[8]  166
    x[4]      packing[11]  11
    x[4]      packing[13]  28
    x[4]      packing[14]  28
    x[4]      packing[16]  128
    x[4]      packing[17]  80
    x[4]      packing[18]  173
    x[4]      packing[21]  80
    x[4]      packing[23]  46
    x[4]      packing[25]  79
    x[4]      packing[26]  65
    x[4]      packing[27]  68
    x[4]      packing[28]  111
    x[4]      packing[30]  192
    x[4]      packing[31]  6
    x[4]      packing[32]  155
    x[4]      packing[33]  42
    x[4]      packing[34]  90
    x[4]      packing[35]  191
    x[4]      packing[37]  108
    x[4]      packing[38]  12
    x[4]      packing[39]  20
    x[4]      packing[40]  155
    x[4]      packing[41]  69
    x[4]      packing[42]  35
    x[4]      packing[43]  190
    x[4]      packing[44]  59
    x[4]      packing[45]  7
    x[4]      packing[46]  125
    x[4]      packing[47]  170
    x[4]      packing[48]  1
    x[5]      OBJ       93
    x[5]      packing[1]  134
    x[5]      packing[2]  143
    x[5]      packing[3]  102
    x[5]      packing[4]  174
    x[5]      packing[5]  34
    x[5]      packing[6]  150
    x[5]      packing[7]  199
    x[5]      packing[8]  106
    x[5]      packing[9]  47
    x[5]      packing[10]  120
    x[5]      packing[11]  168
    x[5]      packing[12]  88
    x[5]      packing[13]  79
    x[5]      packing[17]  84
    x[5]      packing[19]  167
    x[5]      packing[21]  188
    x[5]      packing[22]  193
    x[5]      packing[23]  42
    x[5]      packing[24]  5
    x[5]      packing[25]  199
    x[5]      packing[27]  121
    x[5]      packing[28]  32
    x[5]      packing[29]  181
    x[5]      packing[30]  136
    x[5]      packing[32]  70
    x[5]      packing[33]  63
    x[5]      packing[35]  32
    x[5]      packing[36]  183
    x[5]      packing[37]  127
    x[5]      packing[38]  57
    x[5]      packing[39]  92
    x[5]      packing[40]  84
    x[5]      packing[41]  95
    x[5]      packing[42]  11
    x[5]      packing[43]  198
    x[5]      packing[44]  145
    x[5]      packing[45]  102
    x[5]      packing[47]  25
    x[5]      packing[48]  75
    x[5]      R52       1
    x[6]      OBJ       114
    x[6]      packing[0]  143
    x[6]      packing[2]  87
    x[6]      packing[4]  61
    x[6]      packing[5]  18
    x[6]      packing[6]  121
    x[6]      packing[7]  103
    x[6]      packing[8]  131
    x[6]      packing[9]  86
    x[6]      packing[10]  32
    x[6]      packing[11]  159
    x[6]      packing[14]  38
    x[6]      packing[15]  70
    x[6]      packing[16]  27
    x[6]      packing[17]  128
    x[6]      packing[18]  188
    x[6]      packing[19]  54
    x[6]      packing[20]  38
    x[6]      packing[21]  179
    x[6]      packing[23]  40
    x[6]      packing[25]  165
    x[6]      packing[26]  115
    x[6]      packing[28]  44
    x[6]      packing[29]  146
    x[6]      packing[30]  71
    x[6]      packing[31]  106
    x[6]      packing[32]  140
    x[6]      packing[35]  117
    x[6]      packing[37]  77
    x[6]      packing[39]  194
    x[6]      packing[40]  91
    x[6]      packing[42]  28
    x[6]      packing[43]  90
    x[6]      packing[44]  52
    x[6]      packing[45]  188
    x[6]      packing[46]  54
    x[6]      packing[48]  104
    x[6]      packing[49]  184
    x[6]      R52       1
    x[7]      OBJ       7
    x[7]      packing[1]  157
    x[7]      packing[2]  184
    x[7]      packing[3]  62
    x[7]      packing[4]  64
    x[7]      packing[5]  41
    x[7]      packing[6]  8
    x[7]      packing[7]  157
    x[7]      packing[8]  6
    x[7]      packing[9]  94
    x[7]      packing[12]  133
    x[7]      packing[13]  69
    x[7]      packing[14]  193
    x[7]      packing[15]  173
    x[7]      packing[16]  92
    x[7]      packing[17]  15
    x[7]      packing[18]  94
    x[7]      packing[19]  95
    x[7]      packing[21]  82
    x[7]      packing[22]  184
    x[7]      packing[23]  146
    x[7]      packing[25]  55
    x[7]      packing[26]  4
    x[7]      packing[27]  62
    x[7]      packing[28]  41
    x[7]      packing[29]  158
    x[7]      packing[30]  93
    x[7]      packing[31]  97
    x[7]      packing[32]  160
    x[7]      packing[33]  196
    x[7]      packing[34]  122
    x[7]      packing[35]  176
    x[7]      packing[36]  49
    x[7]      packing[37]  122
    x[7]      packing[38]  147
    x[7]      packing[39]  150
    x[7]      packing[40]  138
    x[7]      packing[41]  108
    x[7]      packing[42]  16
    x[7]      packing[43]  32
    x[7]      packing[44]  138
    x[7]      packing[45]  41
    x[7]      packing[46]  32
    x[7]      packing[47]  48
    x[7]      packing[48]  43
    x[8]      OBJ       151
    x[8]      packing[0]  152
    x[8]      packing[1]  122
    x[8]      packing[2]  12
    x[8]      packing[3]  71
    x[8]      packing[4]  150
    x[8]      packing[5]  193
    x[8]      packing[6]  121
    x[8]      packing[7]  31
    x[8]      packing[9]  38
    x[8]      packing[10]  88
    x[8]      packing[11]  45
    x[8]      packing[12]  139
    x[8]      packing[15]  87
    x[8]      packing[16]  49
    x[8]      packing[17]  121
    x[8]      packing[18]  50
    x[8]      packing[21]  173
    x[8]      packing[22]  159
    x[8]      packing[23]  93
    x[8]      packing[24]  163
    x[8]      packing[26]  162
    x[8]      packing[27]  60
    x[8]      packing[28]  95
    x[8]      packing[29]  82
    x[8]      packing[32]  93
    x[8]      packing[33]  42
    x[8]      packing[34]  3
    x[8]      packing[35]  118
    x[8]      packing[36]  78
    x[8]      packing[39]  36
    x[8]      packing[40]  39
    x[8]      packing[42]  103
    x[8]      packing[44]  25
    x[8]      packing[46]  28
    x[8]      packing[47]  63
    x[8]      packing[48]  62
    x[8]      R52       1
    x[9]      OBJ       172
    x[9]      packing[0]  168
    x[9]      packing[1]  186
    x[9]      packing[2]  159
    x[9]      packing[5]  162
    x[9]      packing[7]  64
    x[9]      packing[9]  122
    x[9]      packing[10]  82
    x[9]      packing[11]  128
    x[9]      packing[12]  63
    x[9]      packing[13]  84
    x[9]      packing[15]  143
    x[9]      packing[16]  84
    x[9]      packing[18]  11
    x[9]      packing[19]  104
    x[9]      packing[20]  99
    x[9]      packing[22]  176
    x[9]      packing[23]  63
    x[9]      packing[24]  168
    x[9]      packing[25]  40
    x[9]      packing[26]  34
    x[9]      packing[28]  81
    x[9]      packing[29]  173
    x[9]      packing[31]  194
    x[9]      packing[32]  10
    x[9]      packing[33]  140
    x[9]      packing[35]  177
    x[9]      packing[37]  44
    x[9]      packing[40]  15
    x[9]      packing[42]  48
    x[9]      packing[43]  153
    x[9]      packing[44]  122
    x[9]      packing[45]  27
    x[9]      packing[47]  197
    x[9]      packing[48]  125
    x[9]      packing[49]  95
    x[10]     OBJ       60
    x[10]     packing[0]  174
    x[10]     packing[1]  199
    x[10]     packing[3]  144
    x[10]     packing[4]  139
    x[10]     packing[5]  161
    x[10]     packing[7]  35
    x[10]     packing[8]  21
    x[10]     packing[9]  175
    x[10]     packing[10]  196
    x[10]     packing[11]  71
    x[10]     packing[12]  45
    x[10]     packing[14]  78
    x[10]     packing[16]  179
    x[10]     packing[18]  25
    x[10]     packing[19]  88
    x[10]     packing[21]  114
    x[10]     packing[23]  112
    x[10]     packing[24]  199
    x[10]     packing[25]  137
    x[10]     packing[26]  147
    x[10]     packing[27]  8
    x[10]     packing[28]  181
    x[10]     packing[29]  9
    x[10]     packing[30]  57
    x[10]     packing[31]  10
    x[10]     packing[32]  57
    x[10]     packing[33]  66
    x[10]     packing[34]  83
    x[10]     packing[36]  180
    x[10]     packing[38]  43
    x[10]     packing[40]  77
    x[10]     packing[41]  52
    x[10]     packing[42]  21
    x[10]     packing[46]  199
    x[10]     packing[47]  155
    x[10]     packing[49]  78
    x[11]     OBJ       68
    x[11]     packing[0]  64
    x[11]     packing[1]  127
    x[11]     packing[2]  118
    x[11]     packing[3]  38
    x[11]     packing[4]  157
    x[11]     packing[8]  19
    x[11]     packing[9]  96
    x[11]     packing[10]  102
    x[11]     packing[12]  85
    x[11]     packing[13]  161
    x[11]     packing[14]  77
    x[11]     packing[17]  77
    x[11]     packing[18]  9
    x[11]     packing[19]  95
    x[11]     packing[20]  117
    x[11]     packing[22]  135
    x[11]     packing[23]  144
    x[11]     packing[24]  141
    x[11]     packing[25]  87
    x[11]     packing[26]  3
    x[11]     packing[27]  86
    x[11]     packing[29]  127
    x[11]     packing[31]  183
    x[11]     packing[32]  135
    x[11]     packing[34]  159
    x[11]     packing[35]  23
    x[11]     packing[36]  25
    x[11]     packing[37]  118
    x[11]     packing[38]  93
    x[11]     packing[39]  51
    x[11]     packing[40]  33
    x[11]     packing[42]  190
    x[11]     packing[44]  131
    x[11]     packing[45]  108
    x[11]     packing[46]  62
    x[11]     packing[47]  45
    x[11]     packing[48]  89
    x[11]     packing[49]  147
    x[12]     OBJ       168
    x[12]     packing[0]  42
    x[12]     packing[1]  7
    x[12]     packing[2]  192
    x[12]     packing[3]  120
    x[12]     packing[5]  166
    x[12]     packing[6]  14
    x[12]     packing[7]  42
    x[12]     packing[8]  79
    x[12]     packing[10]  15
    x[12]     packing[11]  21
    x[12]     packing[13]  138
    x[12]     packing[14]  111
    x[12]     packing[15]  122
    x[12]     packing[17]  186
    x[12]     packing[18]  83
    x[12]     packing[20]  106
    x[12]     packing[21]  41
    x[12]     packing[22]  44
    x[12]     packing[25]  159
    x[12]     packing[26]  126
    x[12]     packing[27]  59
    x[12]     packing[28]  62
    x[12]     packing[29]  13
    x[12]     packing[30]  31
    x[12]     packing[31]  144
    x[12]     packing[32]  29
    x[12]     packing[33]  76
    x[12]     packing[34]  68
    x[12]     packing[36]  154
    x[12]     packing[39]  118
    x[12]     packing[40]  55
    x[12]     packing[41]  32
    x[12]     packing[42]  45
    x[12]     packing[43]  68
    x[12]     packing[44]  175
    x[12]     packing[46]  60
    x[12]     packing[48]  79
    x[12]     packing[49]  101
    x[12]     R52       1
    x[13]     OBJ       45
    x[13]     packing[0]  97
    x[13]     packing[1]  35
    x[13]     packing[2]  181
    x[13]     packing[3]  64
    x[13]     packing[4]  26
    x[13]     packing[8]  90
    x[13]     packing[9]  162
    x[13]     packing[11]  21
    x[13]     packing[12]  153
    x[13]     packing[13]  175
    x[13]     packing[14]  163
    x[13]     packing[15]  176
    x[13]     packing[17]  57
    x[13]     packing[18]  196
    x[13]     packing[19]  5
    x[13]     packing[20]  99
    x[13]     packing[21]  157
    x[13]     packing[22]  194
    x[13]     packing[23]  21
    x[13]     packing[24]  62
    x[13]     packing[25]  182
    x[13]     packing[26]  37
    x[13]     packing[27]  13
    x[13]     packing[28]  4
    x[13]     packing[29]  149
    x[13]     packing[30]  129
    x[13]     packing[31]  14
    x[13]     packing[32]  104
    x[13]     packing[33]  131
    x[13]     packing[34]  191
    x[13]     packing[35]  72
    x[13]     packing[36]  124
    x[13]     packing[38]  95
    x[13]     packing[39]  14
    x[13]     packing[40]  41
    x[13]     packing[41]  119
    x[13]     packing[42]  125
    x[13]     packing[43]  9
    x[13]     packing[44]  120
    x[13]     packing[45]  74
    x[13]     packing[46]  120
    x[13]     packing[48]  55
    x[13]     packing[49]  91
    x[14]     OBJ       45
    x[14]     packing[1]  74
    x[14]     packing[2]  37
    x[14]     packing[4]  53
    x[14]     packing[5]  30
    x[14]     packing[6]  66
    x[14]     packing[7]  69
    x[14]     packing[10]  54
    x[14]     packing[11]  161
    x[14]     packing[14]  122
    x[14]     packing[18]  29
    x[14]     packing[19]  28
    x[14]     packing[20]  127
    x[14]     packing[21]  57
    x[14]     packing[22]  158
    x[14]     packing[23]  129
    x[14]     packing[25]  14
    x[14]     packing[27]  85
    x[14]     packing[28]  75
    x[14]     packing[29]  102
    x[14]     packing[30]  51
    x[14]     packing[32]  171
    x[14]     packing[33]  16
    x[14]     packing[34]  167
    x[14]     packing[35]  61
    x[14]     packing[36]  40
    x[14]     packing[37]  109
    x[14]     packing[38]  167
    x[14]     packing[39]  67
    x[14]     packing[42]  182
    x[14]     packing[43]  109
    x[14]     packing[44]  184
    x[14]     packing[45]  142
    x[14]     packing[47]  178
    x[14]     packing[49]  49
    x[15]     OBJ       132
    x[15]     packing[1]  21
    x[15]     packing[4]  150
    x[15]     packing[5]  13
    x[15]     packing[6]  67
    x[15]     packing[9]  88
    x[15]     packing[10]  111
    x[15]     packing[11]  19
    x[15]     packing[12]  87
    x[15]     packing[13]  71
    x[15]     packing[14]  60
    x[15]     packing[15]  90
    x[15]     packing[16]  158
    x[15]     packing[17]  27
    x[15]     packing[18]  148
    x[15]     packing[19]  30
    x[15]     packing[21]  134
    x[15]     packing[23]  83
    x[15]     packing[24]  56
    x[15]     packing[25]  177
    x[15]     packing[26]  96
    x[15]     packing[27]  84
    x[15]     packing[28]  163
    x[15]     packing[29]  163
    x[15]     packing[30]  191
    x[15]     packing[32]  174
    x[15]     packing[34]  170
    x[15]     packing[35]  125
    x[15]     packing[36]  7
    x[15]     packing[37]  172
    x[15]     packing[38]  39
    x[15]     packing[39]  163
    x[15]     packing[40]  43
    x[15]     packing[41]  168
    x[15]     packing[42]  92
    x[15]     packing[43]  82
    x[15]     packing[44]  64
    x[15]     packing[46]  123
    x[15]     packing[47]  17
    x[15]     packing[48]  36
    x[15]     packing[49]  111
    x[15]     R52       1
    x[16]     OBJ       91
    x[16]     packing[0]  38
    x[16]     packing[1]  90
    x[16]     packing[4]  119
    x[16]     packing[5]  95
    x[16]     packing[8]  157
    x[16]     packing[9]  198
    x[16]     packing[10]  43
    x[16]     packing[11]  159
    x[16]     packing[12]  12
    x[16]     packing[13]  194
    x[16]     packing[15]  167
    x[16]     packing[16]  174
    x[16]     packing[17]  170
    x[16]     packing[18]  77
    x[16]     packing[19]  150
    x[16]     packing[20]  114
    x[16]     packing[23]  102
    x[16]     packing[24]  169
    x[16]     packing[26]  132
    x[16]     packing[27]  74
    x[16]     packing[28]  86
    x[16]     packing[30]  156
    x[16]     packing[31]  39
    x[16]     packing[32]  5
    x[16]     packing[33]  16
    x[16]     packing[34]  78
    x[16]     packing[35]  146
    x[16]     packing[36]  27
    x[16]     packing[37]  171
    x[16]     packing[38]  129
    x[16]     packing[39]  155
    x[16]     packing[40]  67
    x[16]     packing[41]  143
    x[16]     packing[42]  71
    x[16]     packing[43]  134
    x[16]     packing[45]  142
    x[16]     packing[46]  75
    x[16]     packing[48]  76
    x[16]     packing[49]  131
    x[17]     OBJ       200
    x[17]     packing[0]  123
    x[17]     packing[1]  52
    x[17]     packing[2]  6
    x[17]     packing[3]  8
    x[17]     packing[7]  135
    x[17]     packing[9]  49
    x[17]     packing[10]  135
    x[17]     packing[11]  156
    x[17]     packing[12]  150
    x[17]     packing[15]  122
    x[17]     packing[18]  157
    x[17]     packing[19]  146
    x[17]     packing[20]  195
    x[17]     packing[21]  173
    x[17]     packing[24]  148
    x[17]     packing[27]  115
    x[17]     packing[29]  78
    x[17]     packing[30]  129
    x[17]     packing[31]  103
    x[17]     packing[32]  119
    x[17]     packing[34]  186
    x[17]     packing[35]  103
    x[17]     packing[36]  25
    x[17]     packing[39]  160
    x[17]     packing[40]  14
    x[17]     packing[41]  185
    x[17]     packing[42]  162
    x[17]     packing[44]  183
    x[17]     packing[45]  160
    x[17]     packing[46]  198
    x[17]     packing[47]  171
    x[18]     OBJ       97
    x[18]     packing[0]  23
    x[18]     packing[2]  123
    x[18]     packing[4]  9
    x[18]     packing[5]  132
    x[18]     packing[6]  54
    x[18]     packing[7]  152
    x[18]     packing[8]  99
    x[18]     packing[9]  41
    x[18]     packing[10]  64
    x[18]     packing[11]  188
    x[18]     packing[12]  142
    x[18]     packing[14]  177
    x[18]     packing[15]  56
    x[18]     packing[16]  34
    x[18]     packing[20]  116
    x[18]     packing[22]  92
    x[18]     packing[23]  171
    x[18]     packing[24]  39
    x[18]     packing[27]  7
    x[18]     packing[28]  160
    x[18]     packing[29]  114
    x[18]     packing[30]  59
    x[18]     packing[31]  25
    x[18]     packing[32]  69
    x[18]     packing[33]  79
    x[18]     packing[35]  50
    x[18]     packing[36]  165
    x[18]     packing[37]  178
    x[18]     packing[38]  78
    x[18]     packing[40]  95
    x[18]     packing[43]  162
    x[18]     packing[44]  197
    x[18]     packing[45]  131
    x[18]     packing[46]  26
    x[18]     packing[47]  33
    x[18]     packing[49]  188
    x[19]     OBJ       47
    x[19]     packing[0]  116
    x[19]     packing[1]  26
    x[19]     packing[3]  70
    x[19]     packing[4]  173
    x[19]     packing[5]  118
    x[19]     packing[6]  4
    x[19]     packing[7]  102
    x[19]     packing[8]  161
    x[19]     packing[10]  101
    x[19]     packing[11]  57
    x[19]     packing[16]  19
    x[19]     packing[17]  58
    x[19]     packing[18]  17
    x[19]     packing[19]  13
    x[19]     packing[20]  124
    x[19]     packing[21]  164
    x[19]     packing[22]  191
    x[19]     packing[23]  10
    x[19]     packing[24]  170
    x[19]     packing[27]  39
    x[19]     packing[28]  128
    x[19]     packing[30]  107
    x[19]     packing[32]  135
    x[19]     packing[33]  120
    x[19]     packing[34]  47
    x[19]     packing[35]  44
    x[19]     packing[36]  159
    x[19]     packing[37]  24
    x[19]     packing[39]  151
    x[19]     packing[40]  154
    x[19]     packing[41]  174
    x[19]     packing[42]  128
    x[19]     packing[43]  100
    x[19]     packing[46]  193
    x[19]     packing[47]  165
    x[20]     OBJ       121
    x[20]     packing[0]  52
    x[20]     packing[1]  179
    x[20]     packing[2]  115
    x[20]     packing[3]  78
    x[20]     packing[4]  20
    x[20]     packing[5]  161
    x[20]     packing[6]  71
    x[20]     packing[7]  195
    x[20]     packing[8]  167
    x[20]     packing[10]  198
    x[20]     packing[11]  134
    x[20]     packing[12]  94
    x[20]     packing[13]  162
    x[20]     packing[14]  125
    x[20]     packing[17]  184
    x[20]     packing[18]  84
    x[20]     packing[20]  27
    x[20]     packing[21]  69
    x[20]     packing[22]  79
    x[20]     packing[23]  171
    x[20]     packing[24]  88
    x[20]     packing[25]  141
    x[20]     packing[26]  120
    x[20]     packing[27]  92
    x[20]     packing[28]  100
    x[20]     packing[29]  81
    x[20]     packing[30]  88
    x[20]     packing[31]  95
    x[20]     packing[33]  2
    x[20]     packing[34]  87
    x[20]     packing[35]  72
    x[20]     packing[37]  107
    x[20]     packing[38]  60
    x[20]     packing[40]  96
    x[20]     packing[42]  111
    x[20]     packing[43]  151
    x[20]     packing[44]  107
    x[20]     packing[45]  80
    x[20]     packing[46]  190
    x[20]     packing[48]  196
    x[20]     packing[49]  1
    MARKER    'MARKER'                 'INTEND'
RHS
    RHS1      packing[0]  775
    RHS1      packing[1]  849
    RHS1      packing[2]  914
    RHS1      packing[3]  546
    RHS1      packing[4]  779
    RHS1      packing[5]  842
    RHS1      packing[6]  453
    RHS1      packing[7]  772
    RHS1      packing[8]  793
    RHS1      packing[9]  678
    RHS1      packing[10]  776
    RHS1      packing[11]  806
    RHS1      packing[12]  691
    RHS1      packing[13]  680
    RHS1      packing[14]  799
    RHS1      packing[15]  737
    RHS1      packing[16]  596
    RHS1      packing[17]  690
    RHS1      packing[18]  770
    RHS1      packing[19]  673
    RHS1      packing[20]  587
    RHS1      packing[21]  842
    RHS1      packing[22]  908
    RHS1      packing[23]  766
    RHS1      packing[24]  834
    RHS1      packing[25]  789
    RHS1      packing[26]  754
    RHS1      packing[27]  606
    RHS1      packing[28]  768
    RHS1      packing[29]  865
    RHS1      packing[30]  799
    RHS1      packing[31]  620
    RHS1      packing[32]  1008
    RHS1      packing[33]  635
    RHS1      packing[34]  945
    RHS1      packing[35]  873
    RHS1      packing[36]  692
    RHS1      packing[37]  798
    RHS1      packing[38]  532
    RHS1      packing[39]  772
    RHS1      packing[40]  685
    RHS1      packing[41]  666
    RHS1      packing[42]  771
    RHS1      packing[43]  858
    RHS1      packing[44]  851
    RHS1      packing[45]  769
    RHS1      packing[46]  885
    RHS1      packing[47]  677
    RHS1      packing[48]  586
    RHS1      packing[49]  703
    RHS1      R52       4
BOUNDS
 BV BND1      x[1]    
 BV BND1      x[2]    
 BV BND1      x[3]    
 BV BND1      x[4]    
 BV BND1      x[5]    
 BV BND1      x[6]    
 BV BND1      x[7]    
 BV BND1      x[8]    
 BV BND1      x[9]    
 BV BND1      x[10]   
 BV BND1      x[11]   
 BV BND1      x[12]   
 BV BND1      x[13]   
 BV BND1      x[14]   
 BV BND1      x[15]   
 BV BND1      x[16]   
 BV BND1      x[17]   
 BV BND1      x[18]   
 BV BND1      x[19]   
 BV BND1      x[20]   
ENDATA
